40
0 1 0.41 0.17
0 2 0.52 0.19
0 3 0.64 0.25
0 4 0.58 0.11
0 5 0.54 0.12
0 6 0.66 0.21
0 7 0.67 0.14
0 8 0.7 0.1
0 9 0.77 0.03
0 10 0.32 0.24
0 11 0.49 0.22
0 12 0.64 0.36
0 13 0.56 0.19
0 14 0.64 0.27
0 15 0.78 0.16
0 16 0.66 0.16
0 17 0.14 0.09
0 18 0.64 0.18
0 19 0.78 0.13
0 20 0.5 0.27
0 21 0.36 0.2
0 22 0.32 0.17
0 23 0.56 0.25
0 24 0.64 0.16
0 25 0.78 0.2
0 26 0.7 0.23
0 27 0.43 0.1
0 28 0.4 0.22
0 29 0.67 0.27
0 30 0.58 0.13
0 31 0.56 0.17
0 32 0.52 0.19
0 33 0.6 0.36
0 34 0.8 0.27
0 35 0.42 0.05
0 36 0.44 0.19
0 37 0.66 0.29
0 38 0.53 0.24
0 39 0.62 0.09
1 2 0.29 0.18
1 3 0.64 0.21
1 4 0.5 0.28
1 5 0.68 0.26
1 6 0.58 0.22
1 7 0.6 0.23
1 8 0.5 0.07
1 9 0.42 0.2
1 10 0.52 0.14
1 11 0.54 0.22
1 12 0.54 0.37
1 13 0.46 0.24
1 14 0.64 0.28
1 15 0.9 0.33
1 16 0.69 0.26
1 17 0.55 0.26
1 18 0.38 0.25
1 19 0.68 0.25
1 20 0.72 0.31
1 21 0.34 0.25
1 22 0.64 0.2
1 23 0.58 0.15
1 24 0.46 0.25
1 25 0.62 0.27
1 26 0.62 0.28
1 27 0.68 0.19
1 28 0.67 0.22
1 29 0.44 0.24
1 30 0.46 0.28
1 31 0.7 0.2
1 32 0.42 0.12
1 33 0.8 0.45
1 34 0.53 0.25
1 35 0.32 0.14
1 36 0.55 0.26
1 37 0.62 0.18
1 38 0.7 0.18
1 39 0.43 0.26
2 3 0.7 0.18
2 4 0.7 0.24
2 5 0.39 0.2
2 6 0.75 0.26
2 7 0.62 0.16
2 8 0.74 0.25
2 9 0.42 0.16
2 10 0.44 0.09
2 11 0.72 0.24
2 12 0.51 0.32
2 13 0.63 0.24
2 14 0.75 0.23
2 15 0.64 0.32
2 16 0.44 0.09
2 17 0.66 0.28
2 18 0.29 0.07
2 19 0.48 0.07
2 20 0.46 0.31
2 21 0.63 0.27
2 22 0.82 0.25
2 23 0.59 0.21
2 24 0.48 0.14
2 25 0.56 0.22
2 26 0.71 0.24
2 27 0.84 0.16
2 28 0.54 0.24
2 29 0.73 0.24
2 30 0.66 0.12
2 31 0.76 0.02
2 32 0.58 0.27
2 33 0.82 0.36
2 34 0.47 0.2
2 35 0.5 0.21
2 36 0.7 0.16
2 37 0.6 0.14
2 38 0.61 0.17
2 39 0.72 0.16
3 4 0.69 0.31
3 5 0.48 0.31
3 6 0.61 0.19
3 7 0.68 0.27
3 8 0.62 0.28
3 9 0.56 0.23
3 10 0.6 0.27
3 11 0.8 0.35
3 12 0.58 0.31
3 13 0.49 0.21
3 14 0.74 0.27
3 15 0.57 0.38
3 16 0.26 0.18
3 17 0.5 0.16
3 18 0.66 0.2
3 19 0.45 0.16
3 20 0.7 0.22
3 21 0.73 0.2
3 22 0.61 0.22
3 23 0.7 0.36
3 24 0.65 0.29
3 25 0.8 0.24
3 26 0.69 0.3
3 27 0.59 0.29
3 28 0.36 0.34
3 29 0.78 0.12
3 30 0.44 0.25
3 31 0.41 0.2
3 32 0.32 0.09
3 33 0.7 0.45
3 34 0.74 0.29
3 35 0.52 0.24
3 36 0.66 0.25
3 37 0.48 0.32
3 38 0.54 0.26
3 39 0.66 0.29
4 5 0.51 0.23
4 6 0.46 0.15
4 7 0.72 0.16
4 8 0.54 0.21
4 9 0.55 0.08
4 10 0.26 0.18
4 11 0.68 0.24
4 12 0.71 0.34
4 13 0.34 0.17
4 14 0.69 0.32
4 15 0.81 0.27
4 16 0.57 0.27
4 17 0.7 0.2
4 18 0.66 0.29
4 19 0.69 0.18
4 20 0.77 0.32
4 21 0.46 0.27
4 22 0.48 0.16
4 23 0.5 0.22
4 24 0.58 0.18
4 25 0.29 0.1
4 26 0.41 0.27
4 27 0.46 0.21
4 28 0.66 0.11
4 29 0.68 0.26
4 30 0.7 0.2
4 31 0.28 0.22
4 32 0.78 0.25
4 33 0.74 0.38
4 34 0.54 0.22
4 35 0.57 0.16
4 36 0.7 0.27
4 37 0.61 0.34
4 38 0.66 0.32
4 39 0.79 0.16
5 6 0.46 0.12
5 7 0.28 0.12
5 8 0.68 0.22
5 9 0.75 0.15
5 10 0.54 0.29
5 11 0.76 0.2
5 12 0.49 0.24
5 13 0.54 0.1
5 14 0.68 0.33
5 15 0.45 0.28
5 16 0.31 0.16
5 17 0.66 0.21
5 18 0.64 0.17
5 19 0.59 0.25
5 20 0.41 0.15
5 21 0.44 0.32
5 22 0.61 0.29
5 23 0.63 0.29
5 24 0.42 0.14
5 25 0.57 0.17
5 26 0.54 0.2
5 27 0.8 0.22
5 28 0.64 0.34
5 29 0.76 0.34
5 30 0.4 0.2
5 31 0.57 0.22
5 32 0.66 0.22
5 33 0.66 0.34
5 34 0.86 0.18
5 35 0.45 0.17
5 36 0.68 0.3
5 37 0.73 0.3
5 38 0.22 0.21
5 39 0.46 0.21
6 7 0.48 0.11
6 8 0.54 0.27
6 9 0.33 0.18
6 10 0.6 0.28
6 11 0.56 0.19
6 12 0.38 0.22
6 13 0.12 0.02
6 14 0.69 0.25
6 15 0.46 0.22
6 16 0.35 0.21
6 17 0.58 0.26
6 18 0.74 0.19
6 19 0.59 0.28
6 20 0.5 0.27
6 21 0.7 0.31
6 22 0.67 0.23
6 23 0.58 0.34
6 24 0.62 0.13
6 25 0.59 0.05
6 26 0.55 0.12
6 27 0.36 0.24
6 28 0.38 0.26
6 29 0.62 0.31
6 30 0.24 0.16
6 31 0.54 0.25
6 32 0.71 0.1
6 33 0.54 0.33
6 34 0.49 0.1
6 35 0.4 0.26
6 36 0.63 0.26
6 37 0.55 0.22
6 38 0.62 0.29
6 39 0.62 0.2
7 8 0.4 0.16
7 9 0.67 0.17
7 10 0.73 0.25
7 11 0.48 0.08
7 12 0.45 0.32
7 13 0.46 0.13
7 14 0.6 0.28
7 15 0.67 0.3
7 16 0.55 0.25
7 17 0.66 0.22
7 18 0.46 0.23
7 19 0.49 0.19
7 20 0.64 0.27
7 21 0.52 0.23
7 22 0.44 0.27
7 23 0.46 0.32
7 24 0.14 0.02
7 25 0.56 0.06
7 26 0.35 0.23
7 27 0.56 0.24
7 28 0.69 0.27
7 29 0.68 0.3
7 30 0.56 0.08
7 31 0.62 0.14
7 32 0.47 0.18
7 33 0.68 0.22
7 34 0.74 0.21
7 35 0.57 0.19
7 36 0.55 0.18
7 37 0.64 0.2
7 38 0.43 0.24
7 39 0.74 0.12
8 9 0.46 0.13
8 10 0.56 0.21
8 11 0.31 0.2
8 12 0.69 0.38
8 13 0.52 0.29
8 14 0.57 0.35
8 15 0.46 0.26
8 16 0.42 0.24
8 17 0.63 0.19
8 18 0.76 0.26
8 19 0.56 0.23
8 20 0.38 0.37
8 21 0.54 0.3
8 22 0.68 0.26
8 23 0.68 0.22
8 24 0.54 0.18
8 25 0.54 0.22
8 26 0.58 0.33
8 27 0.46 0.2
8 28 0.75 0.29
8 29 0.74 0.31
8 30 0.64 0.23
8 31 0.54 0.27
8 32 0.78 0.19
8 33 0.65 0.38
8 34 0.84 0.26
8 35 0.8 0.15
8 36 0.43 0.29
8 37 0.84 0.25
8 38 0.48 0.25
8 39 0.86 0.19
9 10 0.72 0.25
9 11 0.3 0.24
9 12 0.7 0.36
9 13 0.21 0.16
9 14 0.5 0.3
9 15 0.51 0.19
9 16 0.44 0.19
9 17 0.69 0.12
9 18 0.6 0.21
9 19 0.26 0.1
9 20 0.66 0.27
9 21 0.76 0.23
9 22 0.67 0.2
9 23 0.68 0.22
9 24 0.57 0.19
9 25 0.56 0.18
9 26 0.58 0.26
9 27 0.42 0.13
9 28 0.71 0.19
9 29 0.86 0.3
9 30 0.57 0.16
9 31 0.34 0.14
9 32 0.78 0.22
9 33 0.53 0.38
9 34 0.48 0.24
9 35 0.73 0.08
9 36 0.7 0.19
9 37 0.59 0.26
9 38 0.72 0.27
9 39 0.62 0.12
10 11 0.46 0.3
10 12 0.72 0.25
10 13 0.53 0.26
10 14 0.54 0.14
10 15 0.68 0.25
10 16 0.34 0.18
10 17 0.46 0.2
10 18 0.4 0.16
10 19 0.46 0.16
10 20 0.58 0.38
10 21 0.67 0.36
10 22 0.51 0.34
10 23 0.62 0.29
10 24 0.82 0.23
10 25 0.55 0.28
10 26 0.38 0.16
10 27 0.72 0.25
10 28 0.68 0.29
10 29 0.71 0.33
10 30 0.6 0.21
10 31 0.54 0.11
10 32 0.65 0.26
10 33 0.7 0.45
10 34 0.48 0.18
10 35 0.5 0.28
10 36 0.52 0.25
10 37 0.48 0.23
10 38 0.4 0.26
10 39 0.72 0.25
11 12 0.6 0.33
11 13 0.44 0.21
11 14 0.6 0.36
11 15 0.72 0.38
11 16 0.58 0.33
11 17 0.63 0.3
11 18 0.48 0.31
11 19 0.38 0.27
11 20 0.6 0.35
11 21 0.58 0.31
11 22 0.48 0.28
11 23 0.38 0.24
11 24 0.62 0.1
11 25 0.66 0.14
11 26 0.38 0.23
11 27 0.49 0.24
11 28 0.63 0.35
11 29 0.75 0.38
11 30 0.65 0.16
11 31 0.64 0.22
11 32 0.72 0.26
11 33 0.71 0.3
11 34 0.62 0.29
11 35 0.58 0.27
11 36 0.42 0.26
11 37 0.68 0.28
11 38 0.68 0.26
11 39 0.82 0.2
12 13 0.5 0.2
12 14 0.7 0.39
12 15 0.74 0.37
12 16 0.54 0.28
12 17 0.52 0.4
12 18 0.68 0.3
12 19 0.52 0.35
12 20 0.4 0.34
12 21 0.32 0.27
12 22 0.64 0.42
12 23 0.49 0.43
12 24 0.37 0.3
12 25 0.6 0.27
12 26 0.52 0.26
12 27 0.74 0.43
12 28 0.6 0.45
12 29 0.56 0.19
12 30 0.57 0.34
12 31 0.62 0.3
12 32 0.7 0.29
12 33 0.64 0.3
12 34 0.38 0.12
12 35 0.73 0.38
12 36 0.66 0.41
12 37 0.64 0.24
12 38 0.56 0.32
12 39 0.76 0.3
13 14 0.71 0.23
13 15 0.58 0.24
13 16 0.23 0.19
13 17 0.67 0.24
13 18 0.63 0.17
13 19 0.47 0.26
13 20 0.45 0.25
13 21 0.58 0.33
13 22 0.55 0.25
13 23 0.7 0.32
13 24 0.6 0.15
13 25 0.48 0.07
13 26 0.66 0.1
13 27 0.48 0.26
13 28 0.5 0.28
13 29 0.67 0.33
13 30 0.36 0.18
13 31 0.55 0.26
13 32 0.59 0.12
13 33 0.66 0.35
13 34 0.37 0.08
13 35 0.52 0.24
13 36 0.6 0.28
13 37 0.5 0.2
13 38 0.51 0.27
13 39 0.74 0.22
14 15 0.38 0.11
14 16 0.48 0.2
14 17 0.71 0.34
14 18 0.46 0.22
14 19 0.36 0.22
14 20 0.62 0.46
14 21 0.78 0.3
14 22 0.53 0.31
14 23 0.52 0.31
14 24 0.46 0.26
14 25 0.49 0.3
14 26 0.28 0.24
14 27 0.42 0.27
14 28 0.48 0.23
14 29 0.7 0.22
14 30 0.73 0.35
14 31 0.64 0.25
14 32 0.62 0.35
14 33 0.61 0.4
14 34 0.75 0.28
14 35 0.62 0.3
14 36 0.72 0.31
14 37 0.72 0.16
14 38 0.74 0.28
14 39 0.66 0.32
15 16 0.63 0.31
15 17 0.64 0.25
15 18 0.84 0.33
15 19 0.74 0.29
15 20 0.7 0.43
15 21 0.74 0.36
15 22 0.91 0.2
15 23 0.78 0.41
15 24 0.53 0.32
15 25 0.81 0.27
15 26 0.54 0.34
15 27 0.35 0.16
15 28 0.84 0.34
15 29 0.51 0.33
15 30 0.44 0.26
15 31 0.62 0.33
15 32 0.7 0.32
15 33 0.86 0.44
15 34 0.46 0.25
15 35 0.6 0.21
15 36 0.67 0.32
15 37 0.75 0.26
15 38 0.52 0.23
15 39 0.72 0.25
16 17 0.75 0.21
16 18 0.4 0.02
16 19 0.7 0.16
16 20 0.55 0.26
16 21 0.66 0.24
16 22 0.66 0.2
16 23 0.66 0.25
16 24 0.5 0.23
16 25 0.64 0.26
16 26 0.43 0.29
16 27 0.5 0.19
16 28 0.5 0.33
16 29 0.73 0.3
16 30 0.58 0.17
16 31 0.67 0.11
16 32 0.58 0.27
16 33 0.48 0.36
16 34 0.6 0.27
16 35 0.44 0.14
16 36 0.83 0.17
16 37 0.42 0.2
16 38 0.28 0.08
16 39 0.62 0.13
17 18 0.78 0.23
17 19 0.72 0.22
17 20 0.64 0.18
17 21 0.5 0.29
17 22 0.46 0.26
17 23 0.67 0.34
17 24 0.71 0.2
17 25 0.76 0.26
17 26 0.72 0.14
17 27 0.29 0.16
17 28 0.54 0.31
17 29 0.76 0.28
17 30 0.69 0.22
17 31 0.42 0.26
17 32 0.66 0.25
17 33 0.46 0.3
17 34 0.66 0.32
17 35 0.56 0.14
17 36 0.56 0.28
17 37 0.52 0.38
17 38 0.55 0.28
17 39 0.76 0.18
18 19 0.52 0.14
18 20 0.66 0.28
18 21 0.56 0.26
18 22 0.53 0.18
18 23 0.71 0.27
18 24 0.6 0.21
18 25 0.85 0.24
18 26 0.74 0.27
18 27 0.73 0.21
18 28 0.78 0.31
18 29 0.49 0.31
18 30 0.5 0.19
18 31 0.56 0.09
18 32 0.5 0.29
18 33 0.54 0.34
18 34 0.76 0.25
18 35 0.34 0.16
18 36 0.65 0.19
18 37 0.42 0.18
18 38 0.42 0.1
18 39 0.8 0.15
19 20 0.66 0.37
19 21 0.73 0.33
19 22 0.6 0.3
19 23 0.7 0.24
19 24 0.36 0.17
19 25 0.64 0.25
19 26 0.64 0.27
19 27 0.64 0.23
19 28 0.54 0.27
19 29 0.77 0.28
19 30 0.58 0.19
19 31 0.41 0.05
19 32 0.52 0.25
19 33 0.52 0.29
19 34 0.74 0.23
19 35 0.7 0.18
19 36 0.66 0.09
19 37 0.51 0.17
19 38 0.48 0.24
19 39 0.59 0.22
20 21 0.44 0.32
20 22 0.59 0.44
20 23 0.56 0.16
20 24 0.5 0.29
20 25 0.76 0.22
20 26 0.8 0.32
20 27 0.66 0.34
20 28 0.76 0.43
20 29 0.54 0.34
20 30 0.26 0.21
20 31 0.74 0.33
20 32 0.44 0.31
20 33 0.54 0.3
20 34 0.54 0.33
20 35 0.42 0.32
20 36 0.65 0.31
20 37 0.64 0.44
20 38 0.6 0.33
20 39 0.5 0.23
21 22 0.68 0.33
21 23 0.59 0.16
21 24 0.38 0.25
21 25 0.58 0.29
21 26 0.8 0.38
21 27 0.68 0.3
21 28 0.64 0.21
21 29 0.49 0.08
21 30 0.5 0.15
21 31 0.52 0.29
21 32 0.71 0.29
21 33 0.8 0.45
21 34 0.64 0.39
21 35 0.47 0.25
21 36 0.34 0.25
21 37 0.32 0.29
21 38 0.38 0.17
21 39 0.44 0.11
22 23 0.68 0.35
22 24 0.58 0.25
22 25 0.59 0.26
22 26 0.64 0.3
22 27 0.68 0.23
22 28 0.56 0.27
22 29 0.74 0.34
22 30 0.48 0.29
22 31 0.5 0.27
22 32 0.58 0.13
22 33 0.54 0.41
22 34 0.72 0.33
22 35 0.32 0.18
22 36 0.49 0.31
22 37 0.36 0.22
22 38 0.39 0.16
22 39 0.48 0.26
23 24 0.6 0.31
23 25 0.72 0.32
23 26 0.24 0.22
23 27 0.67 0.34
23 28 0.74 0.28
23 29 0.76 0.24
23 30 0.63 0.31
23 31 0.54 0.19
23 32 0.79 0.27
23 33 0.54 0.39
23 34 0.56 0.37
23 35 0.64 0.29
23 36 0.7 0.33
23 37 0.34 0.28
23 38 0.54 0.33
23 39 0.72 0.27
24 25 0.7 0.08
24 26 0.49 0.25
24 27 0.42 0.26
24 28 0.8 0.29
24 29 0.54 0.32
24 30 0.59 0.1
24 31 0.48 0.12
24 32 0.33 0.2
24 33 0.73 0.24
24 34 0.75 0.23
24 35 0.43 0.21
24 36 0.69 0.2
24 37 0.53 0.22
24 38 0.57 0.26
24 39 0.7 0.14
25 26 0.5 0.17
25 27 0.56 0.28
25 28 0.68 0.21
25 29 0.69 0.36
25 30 0.67 0.14
25 31 0.57 0.2
25 32 0.53 0.15
25 33 0.62 0.28
25 34 0.71 0.15
25 35 0.64 0.25
25 36 0.72 0.24
25 37 0.67 0.26
25 38 0.79 0.3
25 39 0.9 0.18
26 27 0.43 0.3
26 28 0.5 0.19
26 29 0.9 0.42
26 30 0.61 0.28
26 31 0.69 0.22
26 32 0.55 0.22
26 33 0.33 0.3
26 34 0.56 0.18
26 35 0.72 0.28
26 36 0.46 0.36
26 37 0.58 0.3
26 38 0.64 0.37
26 39 0.77 0.32
27 28 0.66 0.32
27 29 0.81 0.29
27 30 0.4 0.19
27 31 0.53 0.18
27 32 0.49 0.29
27 33 0.54 0.36
27 34 0.68 0.32
27 35 0.39 0.05
27 36 0.48 0.16
27 37 0.4 0.3
27 38 0.78 0.27
27 39 0.67 0.19
28 29 0.62 0.29
28 30 0.53 0.31
28 31 0.7 0.22
28 32 0.66 0.34
28 33 0.83 0.49
28 34 0.6 0.33
28 35 0.69 0.27
28 36 0.5 0.36
28 37 0.5 0.31
28 38 0.62 0.38
28 39 0.7 0.27
29 30 0.56 0.22
29 31 0.58 0.26
29 32 0.47 0.21
29 33 0.57 0.42
29 34 0.57 0.31
29 35 0.42 0.24
29 36 0.52 0.22
29 37 0.63 0.37
29 38 0.54 0.25
29 39 0.4 0.18
30 31 0.72 0.14
30 32 0.62 0.16
30 33 0.7 0.3
30 34 0.73 0.26
30 35 0.16 0.14
30 36 0.39 0.1
30 37 0.38 0.26
30 38 0.38 0.16
30 39 0.53 0.04
31 32 0.5 0.29
31 33 0.71 0.34
31 34 0.35 0.18
31 35 0.57 0.22
31 36 0.67 0.14
31 37 0.66 0.12
31 38 0.51 0.19
31 39 0.7 0.18
32 33 0.68 0.38
32 34 0.71 0.2
32 35 0.62 0.24
32 36 0.79 0.18
32 37 0.75 0.3
32 38 0.44 0.28
32 39 0.37 0.2
33 34 0.63 0.3
33 35 0.54 0.41
33 36 0.79 0.2
33 37 0.72 0.42
33 38 0.66 0.44
33 39 0.72 0.34
34 35 0.81 0.32
34 36 0.83 0.32
34 37 0.68 0.12
34 38 0.86 0.35
34 39 0.56 0.3
35 36 0.55 0.21
35 37 0.3 0.25
35 38 0.54 0.22
35 39 0.51 0.14
36 37 0.66 0.26
36 38 0.72 0.25
36 39 0.55 0.14
37 38 0.52 0.28
37 39 0.38 0.3
38 39 0.68 0.2
